GLPSOL--GLPK LP/MIP Solver 5.0
Parameter(s) specified in the command line:
 --lp ../modeles/4_179.lp --log 4_179.log
Reading problem data from '../modeles/4_179.lp'...
733 rows, 1440 columns, 5032 non-zeros
716 integer variables, all of which are binary
2183 lines were read
GLPK Integer Optimizer 5.0
733 rows, 1440 columns, 5032 non-zeros
716 integer variables, all of which are binary
Preprocessing...
712 constraint coefficient(s) were reduced
733 rows, 1436 columns, 5028 non-zeros
716 integer variables, all of which are binary
Scaling...
 A: min|aij| =  1.248e-04  max|aij| =  4.000e+00  ratio =  3.204e+04
GM: min|aij| =  7.474e-02  max|aij| =  1.338e+01  ratio =  1.790e+02
EQ: min|aij| =  5.587e-03  max|aij| =  1.000e+00  ratio =  1.790e+02
2N: min|aij| =  3.906e-03  max|aij| =  1.758e+00  ratio =  4.501e+02
Constructing initial basis...
Size of triangular part is 733
Solving LP relaxation...
GLPK Simplex Optimizer 5.0
733 rows, 1436 columns, 5028 non-zeros
      0: obj =   8.000000000e+00 inf =   1.950e+01 (9)
     51: obj =   4.997659176e-01 inf =   0.000e+00 (0)
*   197: obj =  -1.999777806e+00 inf =   8.910e-16 (0)
OPTIMAL LP SOLUTION FOUND
Integer optimization begins...
Long-step dual simplex will be used
+   197: mip =     not found yet >=              -inf        (1; 0)
+   298: >>>>>  -1.999777806e+00 >=  -1.999777806e+00 < 0.1% (101; 0)
+   298: mip =  -1.999777806e+00 >=     tree is empty   0.0% (0; 201)
INTEGER OPTIMAL SOLUTION FOUND
Time used:   0.1 secs
Memory used: 2.1 Mb (2223438 bytes)
